/*********************************************
    * Lab01 - simple
    * Author: Coso
    * Creation Date: Mar, 2019
    *********************************************/
instance_name = "small_instance_11_simple";

d = 2;
r = 3;

SCj = [86 87];
Dk = [24 82 61];

Cjk = [[42 35 88]
 [44 43 67]];
